Week_3/Staffing_Problem/Staffing.sol
# Solution for model basic_model
# Objective value = 23
I0(6) 7
I1(6) 5
I2(6) 1
I3(6) 7
I4(6) 0
I5(6) 3
I6(6) 0
